TSPLIB/results7.tsp
NAME : results7
COMMENT : a comment by the user
TYPE : TSP
DIMENSION : 24
EDGE_WEIGHT_TYPE : EXPLICIT
EDGE_WEIGHT_FORMAT: FULL_MATRIX
EDGE_WEIGHT_SECTION
0 0 71515 4998000 71531 22837731 22837731 58552 22837731 62556 68400 0 0 4998000 73839 58400 0 9999999999 9999999999 9999999999 9999999999 9999999999 9999999999 9999999999
0 0 89910 58427 89919 64939 64939 6272464 64939 72963 73839 58400 58400 58427 68400 0 0 9999999999 9999999999 9999999999 9999999999 9999999999 9999999999 9999999999
71515 89910 0 0 16000 65003 65003 90001 65003 72393 83088 71515 71515 71500 97916 89910 9999999999 0 9999999999 9999999999 9999999999 9999999999 9999999999 9999999999
4998000 58427 0 0 71502 22405830 22405830 58504 22405830 61601 69400 4998000 4998000 0 74683 58427 9999999999 0 9999999999 9999999999 9999999999 9999999999 9999999999 9999999999
71531 89919 16000 71502 0 0 65000 90000 65000 72140 83362 71531 71531 71502 98120 89919 9999999999 9999999999 0 9999999999 9999999999 9999999999 9999999999 9999999999
22837731 64939 65003 22405830 0 0 0 65000 0 60200 70500 22837731 22837731 22405830 78833 64939 9999999999 9999999999 0 9999999999 9999999999 9999999999 9999999999 9999999999
22837731 64939 65003 22405830 65000 0 0 0 0 60200 70500 22837731 22837731 22405830 78833 64939 9999999999 9999999999 9999999999 0 9999999999 9999999999 9999999999 9999999999
58552 6272464 90001 58504 90000 65000 0 0 65000 72140 75075 58552 58552 58504 69800 6272464 9999999999 9999999999 9999999999 0 9999999999 9999999999 9999999999 9999999999
22837731 64939 65003 22405830 65000 0 0 65000 0 0 70500 22837731 22837731 22405830 78833 64939 9999999999 9999999999 9999999999 9999999999 0 9999999999 9999999999 9999999999
62556 72963 72393 61601 72140 60200 60200 72140 0 0 90420 62556 62556 61601 95857 72963 9999999999 9999999999 9999999999 9999999999 0 9999999999 9999999999 9999999999
68400 73839 83088 69400 83362 70500 70500 75075 70500 90420 0 0 68400 69400 58400 73839 9999999999 9999999999 9999999999 9999999999 9999999999 0 9999999999 9999999999
0 58400 71515 4998000 71531 22837731 22837731 58552 22837731 62556 0 0 0 4998000 73839 58400 9999999999 9999999999 9999999999 9999999999 9999999999 0 9999999999 9999999999
0 58400 71515 4998000 71531 22837731 22837731 58552 22837731 62556 68400 0 0 0 73839 58400 9999999999 9999999999 9999999999 9999999999 9999999999 9999999999 0 9999999999
4998000 58427 71500 0 71502 22405830 22405830 58504 22405830 61601 69400 4998000 0 0 74683 58427 9999999999 9999999999 9999999999 9999999999 9999999999 9999999999 0 9999999999
73839 68400 97916 74683 98120 78833 78833 69800 78833 95857 58400 73839 73839 74683 0 0 9999999999 9999999999 9999999999 9999999999 9999999999 9999999999 9999999999 0
58400 0 89910 58427 89919 64939 64939 6272464 64939 72963 73839 58400 58400 58427 0 0 9999999999 9999999999 9999999999 9999999999 9999999999 9999999999 9999999999 0
0 0 9999999999 9999999999 9999999999 9999999999 9999999999 9999999999 9999999999 9999999999 9999999999 9999999999 9999999999 9999999999 9999999999 9999999999 0 9999999999 9999999999 9999999999 9999999999 9999999999 9999999999 9999999999
9999999999 9999999999 0 0 9999999999 9999999999 9999999999 9999999999 9999999999 9999999999 9999999999 9999999999 9999999999 9999999999 9999999999 9999999999 9999999999 0 9999999999 9999999999 9999999999 9999999999 9999999999 9999999999
9999999999 9999999999 9999999999 9999999999 0 0 9999999999 9999999999 9999999999 9999999999 9999999999 9999999999 9999999999 9999999999 9999999999 9999999999 9999999999 9999999999 0 9999999999 9999999999 9999999999 9999999999 9999999999
9999999999 9999999999 9999999999 9999999999 9999999999 9999999999 0 0 9999999999 9999999999 9999999999 9999999999 9999999999 9999999999 9999999999 9999999999 9999999999 9999999999 9999999999 0 9999999999 9999999999 9999999999 9999999999
9999999999 9999999999 9999999999 9999999999 9999999999 9999999999 9999999999 9999999999 0 0 9999999999 9999999999 9999999999 9999999999 9999999999 9999999999 9999999999 9999999999 9999999999 9999999999 0 9999999999 9999999999 9999999999
9999999999 9999999999 9999999999 9999999999 9999999999 9999999999 9999999999 9999999999 9999999999 9999999999 0 0 9999999999 9999999999 9999999999 9999999999 9999999999 9999999999 9999999999 9999999999 9999999999 0 9999999999 9999999999
9999999999 9999999999 9999999999 9999999999 9999999999 9999999999 9999999999 9999999999 9999999999 9999999999 9999999999 9999999999 0 0 9999999999 9999999999 9999999999 9999999999 9999999999 9999999999 9999999999 9999999999 0 9999999999
9999999999 9999999999 9999999999 9999999999 9999999999 9999999999 9999999999 9999999999 9999999999 9999999999 9999999999 9999999999 9999999999 9999999999 0 0 9999999999 9999999999 9999999999 9999999999 9999999999 9999999999 9999999999 0
EOF
